
include ${pot}.lmp
include kalj.lmp
units lj
atom_style atomic

variable dimensions equal 3
variable density equal 1.2
variable fraca equal 0.8

dimension ${dimensions}
dimension 3
read_restart ${prevbasename}.final.lmprestart.${prevsteps}
read_restart equil/kalj_T0.55_n360_v300_3000000_1.final.lmprestart.${prevsteps}
read_restart equil/kalj_T0.55_n360_v300_3000000_1.final.lmprestart.3000000
Reading restart file ...
  restart file = 15 Sep 2022, LAMMPS = 15 Sep 2022
  restoring atom style atomic from restart
  orthogonal box = (0 0 0) to (6.6943295 6.6943295 6.6943295)
  2 by 2 by 5 MPI processor grid
  restoring pair style lj/cut from restart
  360 atoms
  read_restart CPU = 0.034 seconds
include ${pot}_particles.lmp
include kalj_particles.lmp
mass * 1.0 #  set mass 1.0 for all types

pair_style lj/cut 2.5
#pair coeffs type1 type2 eps sigma
pair_coeff 1 1 1.0 1.00 2.5
pair_coeff 1 2 1.5 0.80 2.0
pair_coeff 2 2 0.5 0.88 2.2
pair_modify shift yes
reset_timestep 0

print "Setting up annealing run"
Setting up annealing run
dump 1 all atom ${dumptime} ${basename}.lammpstrj
dump 1 all atom 1000000 ${basename}.lammpstrj
dump 1 all atom 1000000 equil/kalj_T0.5_n360_v300_10000000_1.lammpstrj
#dump_modify 1 sort id scale no

restart ${restarttime} ${basename}.restart
restart 10000000 ${basename}.restart
restart 10000000 equil/kalj_T0.5_n360_v300_10000000_1.restart
restart ${steps} ${basename}.final.lmprestart
restart 10000000 ${basename}.final.lmprestart
restart 10000000 equil/kalj_T0.5_n360_v300_10000000_1.final.lmprestart

thermo ${thermotime}
thermo 100000
timestep ${timestep}
timestep 0.003

neighbor 0.5 bin
neigh_modify every 1 delay ${neighborstep} check yes
neigh_modify every 1 delay 25 check yes

velocity all create ${temp} ${id} dist gaussian
velocity all create 0.5 ${id} dist gaussian
velocity all create 0.5 1 dist gaussian
fix 1 all nvt temp ${temp} ${temp} ${taut}
fix 1 all nvt temp 0.5 ${temp} ${taut}
fix 1 all nvt temp 0.5 0.5 ${taut}
fix 1 all nvt temp 0.5 0.5 0.3
Resetting global fix info from restart file:
  fix style: nvt, fix ID: 1
run ${steps}
run 10000000
Generated 0 of 1 mixed pair_coeff terms from geometric mixing rule
All restart file global fix info was re-assigned
Neighbor list info ...
  update: every = 1 steps, delay = 25 steps, check = yes
  max neighbors/atom: 2000, page size: 100000
  master list distance cutoff = 3
  ghost atom cutoff = 3
  binsize = 1.5, bins = 5 5 5
  1 neighbor lists, perpetual/occasional/extra = 1 0 0
  (1) pair lj/cut, perpetual
      attributes: half, newton on
      pair build: half/bin/atomonly/newton
      stencil: half/bin/3d
      bin: standard
Per MPI rank memory allocation (min/avg/max) = 4.08 | 4.081 | 4.081 Mbytes
   Step          Temp          E_pair         E_mol          TotEng         Press     
         0   0.5           -6.8796809      0             -6.1317642      3.8340177    
    100000   0.47534624    -6.9202814      0             -6.2092427      3.5797647    
    200000   0.5211378     -6.8716162      0             -6.0920809      4.0905651    
    300000   0.49791872    -6.8949249      0             -6.1501215      3.7981026    
    400000   0.51645239    -6.8738956      0             -6.1013689      4.0930322    
    500000   0.46793282    -6.9528964      0             -6.2529469      3.4546342    
    600000   0.50561814    -6.8809827      0             -6.1246622      3.8870751    
    700000   0.46657345    -6.8493185      0             -6.1514024      4.2117114    
    800000   0.54172456    -6.8250207      0             -6.014691       4.4847927    
    900000   0.50281614    -6.928906       0             -6.1767769      3.5170769    
   1000000   0.49181027    -6.9343404      0             -6.1986742      3.5451489    
   1100000   0.47109593    -6.9361979      0             -6.2315169      3.4975009    
   1200000   0.49934069    -6.9500946      0             -6.2031642      3.466483     
   1300000   0.54515903    -6.8973076      0             -6.0818405      4.015968     
   1400000   0.51343445    -6.9144775      0             -6.1464651      3.7964761    
   1500000   0.51236653    -6.8981423      0             -6.1317273      3.9715259    
   1600000   0.50016353    -6.9035283      0             -6.155367       3.8201494    
   1700000   0.51229563    -6.9429261      0             -6.1766172      3.4518516    
   1800000   0.5149646     -6.9071756      0             -6.1368744      3.8036903    
   1900000   0.47081044    -6.9171221      0             -6.2128681      3.4573765    
   2000000   0.48699303    -6.8835192      0             -6.1550588      4.0491346    
   2100000   0.51461333    -6.9373857      0             -6.1676099      3.5652643    
   2200000   0.47708104    -6.9172784      0             -6.2036447      3.7141912    
   2300000   0.52278585    -6.8762009      0             -6.0942004      4.2043441    
   2400000   0.51113725    -6.9031737      0             -6.1385975      3.8747435    
   2500000   0.49780454    -6.8983334      0             -6.1537007      3.8440191    
   2600000   0.54147715    -6.9314042      0             -6.1214447      3.686645     
   2700000   0.5478317     -6.9351344      0             -6.1156695      3.6151399    
   2800000   0.49180407    -6.9353866      0             -6.1997297      3.5252261    
   2900000   0.4955844     -6.9727548      0             -6.2314432      3.4191234    
   3000000   0.49948396    -6.9320155      0             -6.1848707      3.6128329    
   3100000   0.52558493    -6.9294068      0             -6.1432194      3.6466283    
   3200000   0.52197019    -6.883385       0             -6.1026046      3.8715994    
   3300000   0.49201173    -6.8771103      0             -6.1411427      3.8686682    
   3400000   0.48944763    -6.9177351      0             -6.1856031      3.63346      
   3500000   0.4836862     -7.0134743      0             -6.2899603      3.1451009    
   3600000   0.49671305    -6.9051635      0             -6.1621636      3.6827349    
   3700000   0.52804771    -6.8609704      0             -6.0710991      4.1567597    
   3800000   0.50882664    -6.9274435      0             -6.1663236      3.7094249    
   3900000   0.49209412    -6.8973197      0             -6.1612289      3.829851     
   4000000   0.49519028    -6.8847836      0             -6.1440614      3.9633408    
   4100000   0.50069144    -6.9178458      0             -6.1688948      3.4841511    
   4200000   0.53243339    -6.9344664      0             -6.1380348      3.5327791    
   4300000   0.50868703    -6.9628602      0             -6.2019492      3.3937485    
   4400000   0.48367893    -6.906859       0             -6.1833559      3.8350345    
   4500000   0.53940911    -6.8593438      0             -6.0524776      4.0045933    
   4600000   0.50601246    -6.8771598      0             -6.1202495      3.9394668    
   4700000   0.50822666    -6.9681216      0             -6.2078993      3.4054212    
   4800000   0.49080695    -6.8945522      0             -6.1603868      3.8679425    
   4900000   0.50726309    -6.8348255      0             -6.0760445      4.196238     
   5000000   0.49673215    -6.9333368      0             -6.1903083      3.7156806    
   5100000   0.48065124    -6.8966691      0             -6.177695       3.9510486    
   5200000   0.53216807    -6.8550111      0             -6.0589764      4.0456942    
   5300000   0.52904407    -6.8651195      0             -6.0737577      4.1156088    
   5400000   0.4746561     -6.9294688      0             -6.2194624      3.7709704    
   5500000   0.51609244    -6.9646451      0             -6.1926568      3.4154629    
   5600000   0.48761508    -6.8505605      0             -6.1211696      4.2371911    
   5700000   0.49357121    -6.8775758      0             -6.1392756      3.771248     
   5800000   0.51248039    -6.9001412      0             -6.1335559      3.9727008    
   5900000   0.49727839    -6.9365979      0             -6.1927523      3.7551423    
   6000000   0.51348324    -6.9105032      0             -6.1424178      3.7564976    
   6100000   0.49271139    -6.8554789      0             -6.1184648      4.2102248    
   6200000   0.49077138    -6.8723487      0             -6.1382365      3.8993759    
   6300000   0.54240885    -6.9063075      0             -6.0949542      3.9190217    
   6400000   0.48346663    -6.8428304      0             -6.1196449      4.2302867    
   6500000   0.50711087    -6.9496484      0             -6.1910951      3.549503     
   6600000   0.47984909    -6.9844188      0             -6.2666445      3.2657245    
   6700000   0.49814208    -6.8570862      0             -6.1119487      4.0554092    
   6800000   0.52375406    -6.9318198      0             -6.148371       3.6477606    
   6900000   0.46391354    -6.9112442      0             -6.2173068      3.5340542    
   7000000   0.53652805    -6.8874354      0             -6.0848789      3.9383262    
   7100000   0.50606036    -6.899645       0             -6.142663       3.8179367    
   7200000   0.51368204    -6.8655281      0             -6.0971454      4.0147427    
   7300000   0.53287392    -6.9073528      0             -6.1102623      3.7801465    
   7400000   0.51183647    -6.9136346      0             -6.1480126      3.7400527    
   7500000   0.53818598    -6.8665486      0             -6.0615121      4.2952902    
   7600000   0.47607408    -6.8976115      0             -6.185484       3.7118441    
   7700000   0.50441929    -6.8571316      0             -6.1026044      4.1809801    
   7800000   0.49580586    -6.8719988      0             -6.1303559      3.9912603    
   7900000   0.55782342    -6.8865605      0             -6.0521496      3.8726555    
   8000000   0.52123182    -6.9116233      0             -6.1319474      3.8181008    
   8100000   0.46326551    -6.8239471      0             -6.1309791      4.2132044    
   8200000   0.48914811    -6.8711654      0             -6.1394813      3.8763827    
   8300000   0.48214065    -6.8840027      0             -6.1628007      3.8715996    
   8400000   0.4880624     -6.9242498      0             -6.1941898      3.6174339    
   8500000   0.5370693     -6.9287324      0             -6.1253662      3.6014627    
   8600000   0.48643899    -6.8993812      0             -6.1717495      3.8527688    
   8700000   0.50666133    -6.9399236      0             -6.1820427      3.6790103    
   8800000   0.52029129    -6.9352111      0             -6.1569421      3.722042     
   8900000   0.47608288    -6.9341213      0             -6.2219806      3.6254836    
   9000000   0.51190363    -6.8958221      0             -6.1300996      3.8789091    
   9100000   0.56710787    -6.9140869      0             -6.0657881      3.9270759    
   9200000   0.49781456    -6.9282522      0             -6.1836046      3.6468541    
   9300000   0.51226604    -6.8806728      0             -6.1144082      4.0290965    
   9400000   0.50750008    -6.9882689      0             -6.2291334      3.2988577    
   9500000   0.492521      -6.8824802      0             -6.1457509      3.912807     
   9600000   0.46650901    -6.888892       0             -6.1910722      3.7263974    
   9700000   0.49737899    -6.8543024      0             -6.1103064      4.0774887    
   9800000   0.4890008     -6.8729682      0             -6.1415045      4.1108584    
   9900000   0.49884213    -6.8948814      0             -6.1486967      3.9812093    
  10000000   0.48363306    -6.9082138      0             -6.1847793      3.8425403    
Loop time of 861.656 on 20 procs for 10000000 steps with 360 atoms

Performance: 3008160.408 tau/day, 11605.557 timesteps/s, 4.178 Matom-step/s
99.7% CPU use with 20 MPI tasks x 1 OpenMP threads

MPI task timing breakdown:
Section |  min time  |  avg time  |  max time  |%varavg| %total
---------------------------------------------------------------
Pair    | 71.795     | 82.133     | 94.117     |  66.7 |  9.53
Neigh   | 9.7655     | 10.488     | 11.965     |  18.1 |  1.22
Comm    | 630.12     | 650.27     | 669.67     |  37.9 | 75.47
Output  | 0.012404   | 0.012696   | 0.014921   |   0.5 |  0.00
Modify  | 73.023     | 89.476     | 106.01     | 128.4 | 10.38
Other   |            | 29.27      |            |       |  3.40

Nlocal:             18 ave          21 max          13 min
Histogram: 1 0 0 3 0 2 6 4 3 1
Nghost:         755.05 ave         771 max         742 min
Histogram: 3 2 3 0 4 2 2 0 3 1
Neighs:        1040.35 ave        1251 max         812 min
Histogram: 2 1 1 1 4 2 4 2 1 2

Total # of neighbors = 20807
Ave neighs/atom = 57.797222
Neighbor list builds = 265840
Dangerous builds = 675
Total wall time: 0:14:21
