
include ${pot}.lmp
include kalj.lmp
units lj
atom_style atomic

variable dimensions equal 3
variable density equal 1.2
variable fraca equal 0.8

dimension ${dimensions}
dimension 3
read_restart ${prevbasename}.final.lmprestart.${prevsteps}
read_restart equil/kalj_T0.5_n360_v300_10000000_1.final.lmprestart.${prevsteps}
read_restart equil/kalj_T0.5_n360_v300_10000000_1.final.lmprestart.10000000
Reading restart file ...
  restart file = 15 Sep 2022, LAMMPS = 15 Sep 2022
  restoring atom style atomic from restart
  orthogonal box = (0 0 0) to (6.6943295 6.6943295 6.6943295)
  2 by 2 by 5 MPI processor grid
  restoring pair style lj/cut from restart
  360 atoms
  read_restart CPU = 0.043 seconds
include ${pot}_particles.lmp
include kalj_particles.lmp
mass * 1.0 #  set mass 1.0 for all types

pair_style lj/cut 2.5
#pair coeffs type1 type2 eps sigma
pair_coeff 1 1 1.0 1.00 2.5
pair_coeff 1 2 1.5 0.80 2.0
pair_coeff 2 2 0.5 0.88 2.2
pair_modify shift yes
reset_timestep 0

print "Setting up annealing run"
Setting up annealing run
dump 1 all atom ${dumptime} ${basename}.lammpstrj
dump 1 all atom 3000000 ${basename}.lammpstrj
dump 1 all atom 3000000 equil/kalj_T0.475_n360_v300_30000000_1.lammpstrj
#dump_modify 1 sort id scale no

restart ${restarttime} ${basename}.restart
restart 30000000 ${basename}.restart
restart 30000000 equil/kalj_T0.475_n360_v300_30000000_1.restart
restart ${steps} ${basename}.final.lmprestart
restart 30000000 ${basename}.final.lmprestart
restart 30000000 equil/kalj_T0.475_n360_v300_30000000_1.final.lmprestart

thermo ${thermotime}
thermo 300000
timestep ${timestep}
timestep 0.003

neighbor 0.5 bin
neigh_modify every 1 delay ${neighborstep} check yes
neigh_modify every 1 delay 25 check yes

velocity all create ${temp} ${id} dist gaussian
velocity all create 0.475 ${id} dist gaussian
velocity all create 0.475 1 dist gaussian
fix 1 all nvt temp ${temp} ${temp} ${taut}
fix 1 all nvt temp 0.475 ${temp} ${taut}
fix 1 all nvt temp 0.475 0.475 ${taut}
fix 1 all nvt temp 0.475 0.475 0.3
Resetting global fix info from restart file:
  fix style: nvt, fix ID: 1
run ${steps}
run 30000000
Generated 0 of 1 mixed pair_coeff terms from geometric mixing rule
All restart file global fix info was re-assigned
Neighbor list info ...
  update: every = 1 steps, delay = 25 steps, check = yes
  max neighbors/atom: 2000, page size: 100000
  master list distance cutoff = 3
  ghost atom cutoff = 3
  binsize = 1.5, bins = 5 5 5
  1 neighbor lists, perpetual/occasional/extra = 1 0 0
  (1) pair lj/cut, perpetual
      attributes: half, newton on
      pair build: half/bin/atomonly/newton
      stencil: half/bin/3d
      bin: standard
Per MPI rank memory allocation (min/avg/max) = 4.08 | 4.08 | 4.081 Mbytes
   Step          Temp          E_pair         E_mol          TotEng         Press     
         0   0.475         -6.9082138      0             -6.1976929      3.8322094    
    300000   0.45989073    -6.9897228      0             -6.3018029      3.2392626    
    600000   0.46317724    -6.9650747      0             -6.2722388      3.2361929    
    900000   0.49840176    -6.9628691      0             -6.2173431      3.4549724    
   1200000   0.48808783    -6.936825       0             -6.2067269      3.698306     
   1500000   0.47065552    -6.9090475      0             -6.2050253      3.6004903    
   1800000   0.46535548    -6.9480948      0             -6.2520005      3.2796572    
   2100000   0.45493995    -6.9385085      0             -6.2579941      3.5084901    
   2400000   0.45819098    -6.9024751      0             -6.2170978      3.8571341    
   2700000   0.4938153     -6.9974336      0             -6.2587683      3.1280044    
   3000000   0.46203288    -7.0030435      0             -6.3119193      3.1630502    
   3300000   0.46474403    -7.0261681      0             -6.3309885      2.9714271    
   3600000   0.46694286    -6.9856803      0             -6.2872116      3.3240172    
   3900000   0.44355542    -7.0179543      0             -6.3544693      3.0753071    
   4200000   0.49008815    -7.017405       0             -6.2843148      3.0248805    
   4500000   0.4656276     -7.010948       0             -6.3144467      3.0000811    
   4800000   0.47841111    -7.0723787      0             -6.3567554      2.6709668    
   5100000   0.48510496    -6.9743296      0             -6.2486934      3.3542296    
   5400000   0.48811243    -7.038883       0             -6.3087482      3.0380715    
   5700000   0.47631108    -6.9917755      0             -6.2792935      3.3174416    
   6000000   0.49830173    -6.9136964      0             -6.16832        3.8784927    
   6300000   0.43625745    -6.9403396      0             -6.2877712      3.5591344    
   6600000   0.4750906     -6.9467186      0             -6.2360622      3.5551752    
   6900000   0.45115754    -6.8886774      0             -6.2138209      3.8469838    
   7200000   0.47461996    -6.9304846      0             -6.2205322      3.570848     
   7500000   0.50372084    -6.9209711      0             -6.1674887      3.7578394    
   7800000   0.50082869    -6.952918       0             -6.2037617      3.4652237    
   8100000   0.42674256    -6.9767681      0             -6.3384324      3.1846583    
   8400000   0.45953893    -7.0025503      0             -6.3151567      3.0563696    
   8700000   0.45970684    -6.9799736      0             -6.2923288      3.2122716    
   9000000   0.45134523    -6.996479       0             -6.3213417      3.1213527    
   9300000   0.46503442    -7.0284617      0             -6.3328478      3.031116     
   9600000   0.465495      -6.9766677      0             -6.2803648      3.2519304    
   9900000   0.48307916    -6.9856618      0             -6.2630559      3.1976787    
  10200000   0.5072293     -6.9830999      0             -6.2243695      3.2439353    
  10500000   0.45329844    -7.0272464      0             -6.3491874      2.9833491    
  10800000   0.45708986    -6.956404       0             -6.2726737      3.3855427    
  11100000   0.46618362    -7.0311915      0             -6.3338585      2.9611802    
  11400000   0.45824149    -7.0355825      0             -6.3501296      2.8176344    
  11700000   0.44403219    -7.0369462      0             -6.3727481      2.880217     
  12000000   0.45418154    -6.9215969      0             -6.2422171      3.6472419    
  12300000   0.47248614    -6.9865359      0             -6.2797754      3.3396301    
  12600000   0.50307843    -6.9373636      0             -6.1848421      3.6473338    
  12900000   0.4828086     -7.0447989      0             -6.3225977      2.79124      
  13200000   0.44572529    -7.0151011      0             -6.3483704      2.9894993    
  13500000   0.49717338    -6.9752153      0             -6.2315268      3.270854     
  13800000   0.46476794    -6.9795774      0             -6.284362       3.3137508    
  14100000   0.51569495    -6.9545087      0             -6.183115       3.4943352    
  14400000   0.42160537    -6.9902662      0             -6.3596148      3.1345982    
  14700000   0.44364014    -6.9799159      0             -6.3163042      3.2362812    
  15000000   0.44529728    -7.0118074      0             -6.3457169      3.1396078    
  15300000   0.4496115     -6.9458501      0             -6.2733063      3.4387381    
  15600000   0.50294124    -6.9838046      0             -6.2314884      3.1641583    
  15900000   0.46547145    -7.041817       0             -6.3455493      2.9866483    
  16200000   0.47981294    -6.9843946      0             -6.2666744      3.2340172    
  16500000   0.50283125    -6.9846934      0             -6.2325416      3.39903      
  16800000   0.5022674     -6.9319202      0             -6.1806119      3.5601461    
  17100000   0.48728637    -6.9466442      0             -6.217745       3.3710075    
  17400000   0.46190646    -6.9590612      0             -6.2681262      3.4761412    
  17700000   0.49003517    -7.0014435      0             -6.2684326      3.2691542    
  18000000   0.49128133    -6.9047219      0             -6.1698469      3.864397     
  18300000   0.46460693    -6.9705903      0             -6.2756158      3.3087009    
  18600000   0.48801858    -6.9568697      0             -6.2268753      3.4526575    
  18900000   0.47073644    -6.909066       0             -6.2049227      3.861367     
  19200000   0.44350154    -6.8909385      0             -6.2275341      3.8935437    
  19500000   0.48192247    -6.9063416      0             -6.1854659      3.6784828    
  19800000   0.4790309     -6.9604022      0             -6.2438518      3.4797565    
  20100000   0.46230381    -6.9781442      0             -6.2866148      3.1235519    
  20400000   0.51072881    -7.0014825      0             -6.2375174      3.2417725    
  20700000   0.46203092    -6.9584392      0             -6.2673179      3.398701     
  21000000   0.43298425    -6.9397271      0             -6.2920548      3.5007955    
  21300000   0.46560551    -6.9646268      0             -6.2681585      3.3492348    
  21600000   0.45817278    -7.0107761      0             -6.325426       3.0326467    
  21900000   0.45752245    -6.9712534      0             -6.2868761      3.3478753    
  22200000   0.48258845    -6.9739843      0             -6.2521124      3.3870541    
  22500000   0.47723605    -6.9305548      0             -6.2166892      3.5757832    
  22800000   0.45990068    -6.9437251      0             -6.2557904      3.3181109    
  23100000   0.49685909    -6.9665783      0             -6.2233599      3.278506     
  23400000   0.48415989    -6.9425784      0             -6.2183559      3.4356078    
  23700000   0.48281576    -6.9122435      0             -6.1900316      3.6894724    
  24000000   0.47707089    -6.9717706      0             -6.258152       3.5278624    
  24300000   0.44901972    -6.9613469      0             -6.2896883      3.3307156    
  24600000   0.44331029    -7.0201938      0             -6.3570755      2.9132578    
  24900000   0.49590192    -6.9912343      0             -6.2494477      3.2713256    
  25200000   0.46031434    -6.9127601      0             -6.2242065      3.7544037    
  25500000   0.44832982    -6.917779       0             -6.2471523      3.7560731    
  25800000   0.49311279    -6.9624567      0             -6.2248421      3.1356495    
  26100000   0.48127268    -7.0096215      0             -6.2897178      3.0654479    
  26400000   0.4883432     -6.9401797      0             -6.2096997      3.4029156    
  26700000   0.51939597    -6.9937636      0             -6.2168338      3.2422852    
  27000000   0.4558359     -6.9734521      0             -6.2915976      3.4293528    
  27300000   0.50207429    -6.9173178      0             -6.1662983      3.7284033    
  27600000   0.46716903    -6.947928       0             -6.249121       3.6276507    
  27900000   0.45533844    -6.9627175      0             -6.2816071      3.4363657    
  28200000   0.46295891    -7.0175763      0             -6.3250669      3.0388875    
  28500000   0.52615328    -6.9625444      0             -6.1755068      3.4565752    
  28800000   0.49417038    -6.9187315      0             -6.179535       3.6302983    
  29100000   0.4824712     -7.0273559      0             -6.3056594      2.9901587    
  29400000   0.47878896    -6.8964868      0             -6.1802983      3.8154998    
  29700000   0.45504572    -6.9188443      0             -6.2381717      3.6875429    
  30000000   0.47709899    -6.9793808      0             -6.2657202      3.2602393    
Loop time of 2593.36 on 20 procs for 30000000 steps with 360 atoms

Performance: 2998425.094 tau/day, 11567.998 timesteps/s, 4.164 Matom-step/s
99.7% CPU use with 20 MPI tasks x 1 OpenMP threads

MPI task timing breakdown:
Section |  min time  |  avg time  |  max time  |%varavg| %total
---------------------------------------------------------------
Pair    | 220.19     | 251.42     | 295.42     | 141.5 |  9.69
Neigh   | 28.098     | 31.275     | 34.966     |  37.8 |  1.21
Comm    | 1896.9     | 1952.9     | 1994.4     |  58.7 | 75.30
Output  | 0.013738   | 0.01394    | 0.015635   |   0.3 |  0.00
Modify  | 194.99     | 265.54     | 332.03     | 262.1 | 10.24
Other   |            | 92.19      |            |       |  3.55

Nlocal:             18 ave          21 max          15 min
Histogram: 2 1 0 6 0 4 3 0 1 3
Nghost:          750.4 ave         766 max         733 min
Histogram: 2 1 1 3 1 4 2 4 1 1
Neighs:        1039.65 ave        1321 max         825 min
Histogram: 2 2 2 3 3 3 3 0 1 1

Total # of neighbors = 20793
Ave neighs/atom = 57.758333
Neighbor list builds = 770744
Dangerous builds = 1012
Total wall time: 0:43:13
