
include ${pot}.lmp
include kalj.lmp
units lj
atom_style atomic

variable dimensions equal 3
variable density equal 1.2
variable fraca equal 0.8

dimension ${dimensions}
dimension 3
read_restart ${prevbasename}.final.lmprestart.${prevsteps}
read_restart equil/kalj_T0.6_n360_v300_1000000_1.final.lmprestart.${prevsteps}
read_restart equil/kalj_T0.6_n360_v300_1000000_1.final.lmprestart.1000000
Reading restart file ...
  restart file = 15 Sep 2022, LAMMPS = 15 Sep 2022
  restoring atom style atomic from restart
  orthogonal box = (0 0 0) to (6.6943295 6.6943295 6.6943295)
  2 by 2 by 5 MPI processor grid
  restoring pair style lj/cut from restart
  360 atoms
  read_restart CPU = 0.035 seconds
include ${pot}_particles.lmp
include kalj_particles.lmp
mass * 1.0 #  set mass 1.0 for all types

pair_style lj/cut 2.5
#pair coeffs type1 type2 eps sigma
pair_coeff 1 1 1.0 1.00 2.5
pair_coeff 1 2 1.5 0.80 2.0
pair_coeff 2 2 0.5 0.88 2.2
pair_modify shift yes
reset_timestep 0

print "Setting up annealing run"
Setting up annealing run
dump 1 all atom ${dumptime} ${basename}.lammpstrj
dump 1 all atom 300000 ${basename}.lammpstrj
dump 1 all atom 300000 equil/kalj_T0.55_n360_v300_3000000_1.lammpstrj
#dump_modify 1 sort id scale no

restart ${restarttime} ${basename}.restart
restart 3000000 ${basename}.restart
restart 3000000 equil/kalj_T0.55_n360_v300_3000000_1.restart
restart ${steps} ${basename}.final.lmprestart
restart 3000000 ${basename}.final.lmprestart
restart 3000000 equil/kalj_T0.55_n360_v300_3000000_1.final.lmprestart

thermo ${thermotime}
thermo 30000
timestep ${timestep}
timestep 0.003

neighbor 0.5 bin
neigh_modify every 1 delay ${neighborstep} check yes
neigh_modify every 1 delay 25 check yes

velocity all create ${temp} ${id} dist gaussian
velocity all create 0.55 ${id} dist gaussian
velocity all create 0.55 1 dist gaussian
fix 1 all nvt temp ${temp} ${temp} ${taut}
fix 1 all nvt temp 0.55 ${temp} ${taut}
fix 1 all nvt temp 0.55 0.55 ${taut}
fix 1 all nvt temp 0.55 0.55 0.3
Resetting global fix info from restart file:
  fix style: nvt, fix ID: 1
run ${steps}
run 3000000
Generated 0 of 1 mixed pair_coeff terms from geometric mixing rule
All restart file global fix info was re-assigned
Neighbor list info ...
  update: every = 1 steps, delay = 25 steps, check = yes
  max neighbors/atom: 2000, page size: 100000
  master list distance cutoff = 3
  ghost atom cutoff = 3
  binsize = 1.5, bins = 5 5 5
  1 neighbor lists, perpetual/occasional/extra = 1 0 0
  (1) pair lj/cut, perpetual
      attributes: half, newton on
      pair build: half/bin/atomonly/newton
      stencil: half/bin/3d
      bin: standard
Per MPI rank memory allocation (min/avg/max) = 4.08 | 4.08 | 4.081 Mbytes
   Step          Temp          E_pair         E_mol          TotEng         Press     
         0   0.55          -6.6649888      0             -5.8422804      5.374889     
     30000   0.56542011    -6.8633088      0             -6.0175346      4.2404571    
     60000   0.53752517    -6.8526428      0             -6.0485947      4.2011785    
     90000   0.54961598    -6.8211499      0             -5.999016       4.4643705    
    120000   0.55745253    -6.873439       0             -6.039583       4.1392423    
    150000   0.54489501    -6.8268928      0             -6.0118207      4.2626681    
    180000   0.55282068    -6.7584386      0             -5.931511       4.7252401    
    210000   0.57083395    -6.8535335      0             -5.999661       4.1613386    
    240000   0.56557329    -6.7690447      0             -5.9230413      4.6717917    
    270000   0.55401225    -6.816899       0             -5.988189       4.3591258    
    300000   0.58683153    -6.7934969      0             -5.9156947      4.570387     
    330000   0.55150957    -6.8580119      0             -6.0330456      4.1660155    
    360000   0.56859049    -6.8516323      0             -6.0011157      4.2167147    
    390000   0.55374726    -6.8327587      0             -6.0044451      4.28904      
    420000   0.55294675    -6.810936       0             -5.9838198      4.435176     
    450000   0.54614649    -6.8680385      0             -6.0510944      3.9270383    
    480000   0.55134281    -6.7832278      0             -5.9585109      4.6963324    
    510000   0.52033893    -6.768616       0             -5.9902757      4.7061236    
    540000   0.60685482    -6.7810547      0             -5.8733011      4.7298793    
    570000   0.54186713    -6.8479879      0             -6.037445       4.225021     
    600000   0.55001035    -6.8245373      0             -6.0018135      4.4537968    
    630000   0.48775237    -6.8358786      0             -6.1062824      4.1780167    
    660000   0.5431196     -6.8113746      0             -5.9989582      4.4812852    
    690000   0.56493087    -6.7241261      0             -5.8790837      4.8087025    
    720000   0.5740201     -6.8282236      0             -5.9695853      4.2653913    
    750000   0.53272076    -6.7518803      0             -5.9550189      4.7312375    
    780000   0.56066811    -6.8054096      0             -5.9667435      4.6889282    
    810000   0.5225994     -6.7894255      0             -6.0077039      4.7952443    
    840000   0.55343848    -6.8588902      0             -6.0310385      4.1825734    
    870000   0.56285823    -6.7749097      0             -5.9329676      4.5636291    
    900000   0.55160477    -6.8448413      0             -6.0197325      4.2331995    
    930000   0.52291402    -6.8498795      0             -6.0676873      4.3231039    
    960000   0.52150812    -6.7458876      0             -5.9657983      4.8834371    
    990000   0.50444879    -6.7783927      0             -6.0238214      4.6610703    
   1020000   0.51839965    -6.838371       0             -6.0629315      4.1693536    
   1050000   0.61398835    -6.7969036      0             -5.8784794      4.5973912    
   1080000   0.56215978    -6.8613105      0             -6.0204132      4.2086324    
   1110000   0.57021655    -6.7806503      0             -5.9277014      4.5882886    
   1140000   0.5615222     -6.790902       0             -5.9509584      4.5242292    
   1170000   0.54670382    -6.7372229      0             -5.9194451      4.8870224    
   1200000   0.53075196    -6.80531        0             -6.0113935      4.4470471    
   1230000   0.54019273    -6.8323818      0             -6.0243435      4.2695567    
   1260000   0.53419461    -6.805185       0             -6.0061189      4.4089425    
   1290000   0.50751917    -6.824579       0             -6.0654149      4.2202692    
   1320000   0.569391      -6.881274       0             -6.02956        3.965438     
   1350000   0.55350054    -6.8090982      0             -5.9811536      4.4161869    
   1380000   0.56823262    -6.8704566      0             -6.0204754      4.0497993    
   1410000   0.5362453     -6.8547992      0             -6.0526656      4.0012653    
   1440000   0.5418935     -6.8358441      0             -6.0252617      4.2233843    
   1470000   0.54805038    -6.7814785      0             -5.9616865      4.5255025    
   1500000   0.50404175    -6.8515395      0             -6.097577       4.0714199    
   1530000   0.54242425    -6.8408294      0             -6.0294532      4.3009826    
   1560000   0.51710725    -6.8053885      0             -6.0318822      4.5121651    
   1590000   0.55231857    -6.7758735      0             -5.9496969      4.5995719    
   1620000   0.5453157     -6.7932597      0             -5.9775583      4.4243002    
   1650000   0.54892049    -6.7923863      0             -5.9712927      4.4328244    
   1680000   0.51457443    -6.8279439      0             -6.0582263      4.1568355    
   1710000   0.59394334    -6.8408515      0             -5.9524113      4.2110206    
   1740000   0.57280944    -6.7874695      0             -5.930642       4.5713013    
   1770000   0.51152676    -6.7913717      0             -6.0262129      4.6127137    
   1800000   0.5778435     -6.7891456      0             -5.924788       4.490088     
   1830000   0.55720813    -6.7458385      0             -5.912348       4.7440354    
   1860000   0.50618967    -6.7308921      0             -5.9737167      4.8362864    
   1890000   0.5370257     -6.8016253      0             -5.9983244      4.4942013    
   1920000   0.5613982     -6.8416172      0             -6.001859       4.2478027    
   1950000   0.52422285    -6.8437222      0             -6.0595722      4.2713405    
   1980000   0.55848254    -6.7774265      0             -5.9420297      4.7061183    
   2010000   0.56706357    -6.7673483      0             -5.9191157      4.8160732    
   2040000   0.59339253    -6.7832738      0             -5.8956574      4.6488509    
   2070000   0.53799766    -6.8287542      0             -6.0239994      4.2264318    
   2100000   0.54297777    -6.8686863      0             -6.056482       4.0030298    
   2130000   0.56633138    -6.7336317      0             -5.8864943      4.8564497    
   2160000   0.50289708    -6.8236758      0             -6.0714256      4.2586125    
   2190000   0.54268582    -6.7403079      0             -5.9285404      5.0141824    
   2220000   0.56252953    -6.8183427      0             -5.9768922      4.3718857    
   2250000   0.52569414    -6.8391522      0             -6.0528014      4.1482933    
   2280000   0.57184072    -6.8233508      0             -5.9679723      4.3232621    
   2310000   0.5619908     -6.8269206      0             -5.986276       4.3634952    
   2340000   0.54131013    -6.8263985      0             -6.0166887      4.4587856    
   2370000   0.506716      -6.8693112      0             -6.1113486      4.1028896    
   2400000   0.60282262    -6.8671587      0             -5.9654365      4.1932945    
   2430000   0.54264842    -6.7687898      0             -5.9570782      4.5807325    
   2460000   0.54965742    -6.7525177      0             -5.9303218      4.7587284    
   2490000   0.53672428    -6.8423447      0             -6.0394946      4.1958519    
   2520000   0.52724416    -6.7943968      0             -6.0057274      4.5776538    
   2550000   0.56776545    -6.8120084      0             -5.9627259      4.4855736    
   2580000   0.54779116    -6.7647364      0             -5.9453321      4.7231088    
   2610000   0.55189906    -6.809118       0             -5.9835689      4.4130842    
   2640000   0.54470045    -6.845354       0             -6.0305729      4.0661466    
   2670000   0.55450673    -6.7511898      0             -5.9217402      4.8943031    
   2700000   0.57647224    -6.7730965      0             -5.9107901      4.8455037    
   2730000   0.56605221    -6.8369434      0             -5.9902237      4.2120006    
   2760000   0.53646245    -6.7500825      0             -5.947624       4.7472718    
   2790000   0.52768424    -6.7858059      0             -5.9964782      4.5042909    
   2820000   0.52581642    -6.7878061      0             -6.0012724      4.4336696    
   2850000   0.55052219    -6.8503586      0             -6.0268691      4.2048467    
   2880000   0.56440397    -6.8580333      0             -6.013779       4.2294608    
   2910000   0.56668254    -6.8342501      0             -5.9865875      4.2173526    
   2940000   0.56586225    -6.8514799      0             -6.0050443      4.1179844    
   2970000   0.56503722    -6.786658       0             -5.9414565      4.714629     
   3000000   0.58614281    -6.8796809      0             -6.002909       3.9371019    
Loop time of 259.403 on 20 procs for 3000000 steps with 360 atoms

Performance: 2997650.305 tau/day, 11565.009 timesteps/s, 4.163 Matom-step/s
99.7% CPU use with 20 MPI tasks x 1 OpenMP threads

MPI task timing breakdown:
Section |  min time  |  avg time  |  max time  |%varavg| %total
---------------------------------------------------------------
Pair    | 21.623     | 24.859     | 28.557     |  42.4 |  9.58
Neigh   | 3.0607     | 3.3777     | 3.7529     |  11.7 |  1.30
Comm    | 190.91     | 196.27     | 201.89     |  21.8 | 75.66
Output  | 0.0094796  | 0.0097382  | 0.010924   |   0.3 |  0.00
Modify  | 20.912     | 26.955     | 33.707     |  81.0 | 10.39
Other   |            | 7.937      |            |       |  3.06

Nlocal:             18 ave          24 max          14 min
Histogram: 1 0 5 2 5 3 2 1 0 1
Nghost:          759.9 ave         776 max         748 min
Histogram: 2 1 4 3 2 2 3 2 0 1
Neighs:         1036.6 ave        1344 max         771 min
Histogram: 1 1 2 5 4 1 2 3 0 1

Total # of neighbors = 20732
Ave neighs/atom = 57.588889
Neighbor list builds = 84851
Dangerous builds = 607
Total wall time: 0:04:19
