
include ${pot}.lmp
include kalj.lmp
units lj
atom_style atomic

variable dimensions equal 3
variable density equal 1.2
variable fraca equal 0.8

dimension ${dimensions}
dimension 3
read_restart ${prevbasename}.final.lmprestart.${prevsteps}
read_restart equil/kalj_T1.5_n360_v300_10000_1.final.lmprestart.${prevsteps}
read_restart equil/kalj_T1.5_n360_v300_10000_1.final.lmprestart.10000
Reading restart file ...
  restart file = 15 Sep 2022, LAMMPS = 15 Sep 2022
  restoring atom style atomic from restart
  orthogonal box = (0 0 0) to (6.6943295 6.6943295 6.6943295)
  2 by 2 by 5 MPI processor grid
  restoring pair style lj/cut from restart
  360 atoms
  read_restart CPU = 0.036 seconds
include ${pot}_particles.lmp
include kalj_particles.lmp
mass * 1.0 #  set mass 1.0 for all types

pair_style lj/cut 2.5
#pair coeffs type1 type2 eps sigma
pair_coeff 1 1 1.0 1.00 2.5
pair_coeff 1 2 1.5 0.80 2.0
pair_coeff 2 2 0.5 0.88 2.2
pair_modify shift yes
reset_timestep 0

print "Setting up annealing run"
Setting up annealing run
dump 1 all atom ${dumptime} ${basename}.lammpstrj
dump 1 all atom 10000 ${basename}.lammpstrj
dump 1 all atom 10000 equil/kalj_T1_n360_v300_50000_1.lammpstrj
#dump_modify 1 sort id scale no

restart ${restarttime} ${basename}.restart
restart 30000 ${basename}.restart
restart 30000 equil/kalj_T1_n360_v300_50000_1.restart
restart ${steps} ${basename}.final.lmprestart
restart 50000 ${basename}.final.lmprestart
restart 50000 equil/kalj_T1_n360_v300_50000_1.final.lmprestart

thermo ${thermotime}
thermo 2000
timestep ${timestep}
timestep 0.002

neighbor 0.5 bin
neigh_modify every 1 delay ${neighborstep} check yes
neigh_modify every 1 delay 20 check yes

velocity all create ${temp} ${id} dist gaussian
velocity all create 1 ${id} dist gaussian
velocity all create 1 1 dist gaussian
fix 1 all nvt temp ${temp} ${temp} ${taut}
fix 1 all nvt temp 1 ${temp} ${taut}
fix 1 all nvt temp 1 1 ${taut}
fix 1 all nvt temp 1 1 0.2
Resetting global fix info from restart file:
  fix style: nvt, fix ID: 1
run ${steps}
run 50000
Generated 0 of 1 mixed pair_coeff terms from geometric mixing rule
All restart file global fix info was re-assigned
Neighbor list info ...
  update: every = 1 steps, delay = 20 steps, check = yes
  max neighbors/atom: 2000, page size: 100000
  master list distance cutoff = 3
  ghost atom cutoff = 3
  binsize = 1.5, bins = 5 5 5
  1 neighbor lists, perpetual/occasional/extra = 1 0 0
  (1) pair lj/cut, perpetual
      attributes: half, newton on
      pair build: half/bin/atomonly/newton
      stencil: half/bin/3d
      bin: standard
Per MPI rank memory allocation (min/avg/max) = 4.08 | 4.08 | 4.081 Mbytes
   Step          Temp          E_pair         E_mol          TotEng         Press     
         0   1             -5.3146031      0             -3.8187698      14.154285    
      2000   1.0263585     -6.0153409      0             -4.4800796      9.9850647    
      4000   1.045504      -6.0146371      0             -4.4507374      10.037996    
      6000   1.0094151     -6.0507725      0             -4.5408558      9.7739058    
      8000   1.0111728     -6.0770523      0             -4.5645063      9.3407837    
     10000   0.98407952    -6.0943173      0             -4.6222984      9.320228     
     12000   1.0117223     -5.940245       0             -4.426877       10.41109     
     14000   0.94966598    -6.0485856      0             -4.6280435      9.6747386    
     16000   0.9901105     -5.9081217      0             -4.4270814      10.570127    
     18000   1.1192221     -6.0008303      0             -4.3266605      10.211878    
     20000   1.0296471     -6.0434998      0             -4.5033193      9.6811508    
     22000   0.91688291    -6.0412515      0             -4.6697475      9.6887864    
     24000   0.94702755    -6.042306       0             -4.6257106      9.6711293    
     26000   0.98747709    -5.9760308      0             -4.4989296      9.9293483    
     28000   0.96570957    -6.043051       0             -4.5985105      9.7154452    
     30000   1.0566938     -6.1512547      0             -4.5706169      8.8873703    
     32000   1.0976825     -5.9235356      0             -4.2815855      10.441244    
     34000   0.98052336    -6.0845871      0             -4.6178876      9.4098852    
     36000   1.0205282     -6.0647728      0             -4.5382327      9.5820328    
     38000   0.90580788    -5.9185498      0             -4.5636121      10.444257    
     40000   1.0008933     -5.9913782      0             -4.4942086      10.118057    
     42000   1.0605359     -5.961877       0             -4.3754921      10.406542    
     44000   0.95633024    -5.9855239      0             -4.5550132      9.9152469    
     46000   1.0184777     -6.0746685      0             -4.5511956      9.564146     
     48000   0.97186454    -6.0418146      0             -4.5880672      9.6129856    
     50000   0.89270321    -6.0012388      0             -4.6659036      9.7424676    
Loop time of 4.43527 on 20 procs for 50000 steps with 360 atoms

Performance: 1948020.750 tau/day, 11273.268 timesteps/s, 4.058 Matom-step/s
99.7% CPU use with 20 MPI tasks x 1 OpenMP threads

MPI task timing breakdown:
Section |  min time  |  avg time  |  max time  |%varavg| %total
---------------------------------------------------------------
Pair    | 0.35186    | 0.41508    | 0.48253    |   6.0 |  9.36
Neigh   | 0.048524   | 0.054427   | 0.061105   |   1.6 |  1.23
Comm    | 3.2219     | 3.3137     | 3.3975     |   2.6 | 74.71
Output  | 0.002777   | 0.0028599  | 0.0030997  |   0.1 |  0.06
Modify  | 0.31415    | 0.45986    | 0.60425    |  12.2 | 10.37
Other   |            | 0.1893     |            |       |  4.27

Nlocal:             18 ave          22 max          14 min
Histogram: 1 1 2 3 0 6 3 2 1 1
Nghost:         752.25 ave         765 max         741 min
Histogram: 2 2 4 1 1 3 2 1 2 2
Neighs:        1039.55 ave        1321 max         806 min
Histogram: 2 1 3 3 4 0 3 2 1 1

Total # of neighbors = 20791
Ave neighs/atom = 57.752778
Neighbor list builds = 1363
Dangerous builds = 0
Total wall time: 0:00:04
