
include ${pot}.lmp
include kalj.lmp
units lj
atom_style atomic

variable dimensions equal 3
variable density equal 1.2
variable fraca equal 0.8

dimension ${dimensions}
dimension 3
read_restart ${prevbasename}.final.lmprestart.${prevsteps}
read_restart equil/kalj_T1_n360_v300_50000_1.final.lmprestart.${prevsteps}
read_restart equil/kalj_T1_n360_v300_50000_1.final.lmprestart.50000
Reading restart file ...
  restart file = 15 Sep 2022, LAMMPS = 15 Sep 2022
  restoring atom style atomic from restart
  orthogonal box = (0 0 0) to (6.6943295 6.6943295 6.6943295)
  2 by 2 by 5 MPI processor grid
  restoring pair style lj/cut from restart
  360 atoms
  read_restart CPU = 0.044 seconds
include ${pot}_particles.lmp
include kalj_particles.lmp
mass * 1.0 #  set mass 1.0 for all types

pair_style lj/cut 2.5
#pair coeffs type1 type2 eps sigma
pair_coeff 1 1 1.0 1.00 2.5
pair_coeff 1 2 1.5 0.80 2.0
pair_coeff 2 2 0.5 0.88 2.2
pair_modify shift yes
reset_timestep 0

print "Setting up annealing run"
Setting up annealing run
dump 1 all atom ${dumptime} ${basename}.lammpstrj
dump 1 all atom 50000 ${basename}.lammpstrj
dump 1 all atom 50000 equil/kalj_T0.9_n360_v300_150000_1.lammpstrj
#dump_modify 1 sort id scale no

restart ${restarttime} ${basename}.restart
restart 150000 ${basename}.restart
restart 150000 equil/kalj_T0.9_n360_v300_150000_1.restart
restart ${steps} ${basename}.final.lmprestart
restart 150000 ${basename}.final.lmprestart
restart 150000 equil/kalj_T0.9_n360_v300_150000_1.final.lmprestart

thermo ${thermotime}
thermo 5000
timestep ${timestep}
timestep 0.002

neighbor 0.5 bin
neigh_modify every 1 delay ${neighborstep} check yes
neigh_modify every 1 delay 25 check yes

velocity all create ${temp} ${id} dist gaussian
velocity all create 0.9 ${id} dist gaussian
velocity all create 0.9 1 dist gaussian
fix 1 all nvt temp ${temp} ${temp} ${taut}
fix 1 all nvt temp 0.9 ${temp} ${taut}
fix 1 all nvt temp 0.9 0.9 ${taut}
fix 1 all nvt temp 0.9 0.9 0.2
Resetting global fix info from restart file:
  fix style: nvt, fix ID: 1
run ${steps}
run 150000
Generated 0 of 1 mixed pair_coeff terms from geometric mixing rule
All restart file global fix info was re-assigned
Neighbor list info ...
  update: every = 1 steps, delay = 25 steps, check = yes
  max neighbors/atom: 2000, page size: 100000
  master list distance cutoff = 3
  ghost atom cutoff = 3
  binsize = 1.5, bins = 5 5 5
  1 neighbor lists, perpetual/occasional/extra = 1 0 0
  (1) pair lj/cut, perpetual
      attributes: half, newton on
      pair build: half/bin/atomonly/newton
      stencil: half/bin/3d
      bin: standard
Per MPI rank memory allocation (min/avg/max) = 4.08 | 4.08 | 4.081 Mbytes
   Step          Temp          E_pair         E_mol          TotEng         Press     
         0   0.9           -6.0012388      0             -4.6549888      9.7511994    
      5000   0.89201742    -6.2250949      0             -4.8907855      8.4836461    
     10000   0.89022201    -6.2448458      0             -4.913222       8.0883737    
     15000   0.89914207    -6.1611331      0             -4.8161664      8.7417594    
     20000   0.88881589    -6.2313673      0             -4.9018469      8.3401563    
     25000   0.88102429    -6.2079289      0             -4.8900634      8.4108835    
     30000   0.86088243    -6.2109306      0             -4.923194       8.3748254    
     35000   0.90168853    -6.2905487      0             -4.9417729      8.0703345    
     40000   0.82255715    -6.2109397      0             -4.9805313      8.3882545    
     45000   0.88478978    -6.1269619      0             -4.8034638      9.0668763    
     50000   0.88116991    -6.226342       0             -4.9082587      8.4776013    
     55000   0.91844417    -6.164022       0             -4.7901826      8.7708111    
     60000   0.93415749    -6.1633081      0             -4.7659642      9.1175756    
     65000   0.81948791    -6.1041661      0             -4.8783488      9.2279273    
     70000   1.0020283     -6.3002315      0             -4.8013642      8.0973309    
     75000   0.86272552    -6.1897428      0             -4.8992492      8.6478479    
     80000   0.8736712     -6.2074876      0             -4.9006211      8.7062798    
     85000   0.96680922    -6.1489471      0             -4.7027616      9.0607966    
     90000   0.95829592    -6.1857328      0             -4.7522818      8.8789637    
     95000   0.86350031    -6.1893566      0             -4.8977041      8.5740146    
    100000   0.92683511    -6.2026611      0             -4.8162702      8.686886     
    105000   0.92842005    -6.1885945      0             -4.7998328      8.8558441    
    110000   0.88983886    -6.2102316      0             -4.879181       8.4613612    
    115000   0.90856403    -6.1146758      0             -4.7556155      9.1556588    
    120000   0.89493286    -6.1211568      0             -4.7824864      9.0232039    
    125000   0.90115523    -6.1740241      0             -4.826046       8.7883833    
    130000   0.86015608    -6.2509805      0             -4.9643303      8.200006     
    135000   0.84749881    -6.2003116      0             -4.9325947      8.5495003    
    140000   0.83213204    -6.2261855      0             -4.9814547      8.2718357    
    145000   0.87924757    -6.2164792      0             -4.9012713      8.6209475    
    150000   0.85942493    -6.2676265      0             -4.9820701      8.1586342    
Loop time of 12.9817 on 20 procs for 150000 steps with 360 atoms

Performance: 1996658.616 tau/day, 11554.737 timesteps/s, 4.160 Matom-step/s
99.7% CPU use with 20 MPI tasks x 1 OpenMP threads

MPI task timing breakdown:
Section |  min time  |  avg time  |  max time  |%varavg| %total
---------------------------------------------------------------
Pair    | 1.068      | 1.2198     | 1.3704     |   7.8 |  9.40
Neigh   | 0.14054    | 0.15234    | 0.1671     |   1.8 |  1.17
Comm    | 9.4825     | 9.7912     | 10.075     |   5.0 | 75.42
Output  | 0.0029819  | 0.0030564  | 0.0033633  |   0.1 |  0.02
Modify  | 1.0765     | 1.351      | 1.6867     |  16.7 | 10.41
Other   |            | 0.4642     |            |       |  3.58

Nlocal:             18 ave          21 max          14 min
Histogram: 1 2 0 0 6 4 0 1 3 3
Nghost:         751.45 ave         777 max         731 min
Histogram: 3 1 1 4 2 2 5 0 1 1
Neighs:         1040.8 ave        1321 max         686 min
Histogram: 1 0 1 1 5 4 3 1 3 1

Total # of neighbors = 20816
Ave neighs/atom = 57.822222
Neighbor list builds = 3852
Dangerous builds = 1
Total wall time: 0:00:13
