
include ${pot}.lmp
include kalj.lmp
units lj
atom_style atomic

variable dimensions equal 3
variable density equal 1.2
variable fraca equal 0.8

dimension ${dimensions}
dimension 3
read_restart ${prevbasename}.final.lmprestart.${prevsteps}
read_restart equil/kalj_T0.9_n360_v300_150000_1.final.lmprestart.${prevsteps}
read_restart equil/kalj_T0.9_n360_v300_150000_1.final.lmprestart.150000
Reading restart file ...
  restart file = 15 Sep 2022, LAMMPS = 15 Sep 2022
  restoring atom style atomic from restart
  orthogonal box = (0 0 0) to (6.6943295 6.6943295 6.6943295)
  2 by 2 by 5 MPI processor grid
  restoring pair style lj/cut from restart
  360 atoms
  read_restart CPU = 0.041 seconds
include ${pot}_particles.lmp
include kalj_particles.lmp
mass * 1.0 #  set mass 1.0 for all types

pair_style lj/cut 2.5
#pair coeffs type1 type2 eps sigma
pair_coeff 1 1 1.0 1.00 2.5
pair_coeff 1 2 1.5 0.80 2.0
pair_coeff 2 2 0.5 0.88 2.2
pair_modify shift yes
reset_timestep 0

print "Setting up annealing run"
Setting up annealing run
dump 1 all atom ${dumptime} ${basename}.lammpstrj
dump 1 all atom 50000 ${basename}.lammpstrj
dump 1 all atom 50000 equil/kalj_T0.8_n360_v300_150000_1.lammpstrj
#dump_modify 1 sort id scale no

restart ${restarttime} ${basename}.restart
restart 150000 ${basename}.restart
restart 150000 equil/kalj_T0.8_n360_v300_150000_1.restart
restart ${steps} ${basename}.final.lmprestart
restart 150000 ${basename}.final.lmprestart
restart 150000 equil/kalj_T0.8_n360_v300_150000_1.final.lmprestart

thermo ${thermotime}
thermo 5000
timestep ${timestep}
timestep 0.002

neighbor 0.5 bin
neigh_modify every 1 delay ${neighborstep} check yes
neigh_modify every 1 delay 25 check yes

velocity all create ${temp} ${id} dist gaussian
velocity all create 0.8 ${id} dist gaussian
velocity all create 0.8 1 dist gaussian
fix 1 all nvt temp ${temp} ${temp} ${taut}
fix 1 all nvt temp 0.8 ${temp} ${taut}
fix 1 all nvt temp 0.8 0.8 ${taut}
fix 1 all nvt temp 0.8 0.8 0.2
Resetting global fix info from restart file:
  fix style: nvt, fix ID: 1
run ${steps}
run 150000
Generated 0 of 1 mixed pair_coeff terms from geometric mixing rule
All restart file global fix info was re-assigned
Neighbor list info ...
  update: every = 1 steps, delay = 25 steps, check = yes
  max neighbors/atom: 2000, page size: 100000
  master list distance cutoff = 3
  ghost atom cutoff = 3
  binsize = 1.5, bins = 5 5 5
  1 neighbor lists, perpetual/occasional/extra = 1 0 0
  (1) pair lj/cut, perpetual
      attributes: half, newton on
      pair build: half/bin/atomonly/newton
      stencil: half/bin/3d
      bin: standard
Per MPI rank memory allocation (min/avg/max) = 4.08 | 4.08 | 4.081 Mbytes
   Step          Temp          E_pair         E_mol          TotEng         Press     
         0   0.8           -6.2676265      0             -5.0709599      8.0875224    
      5000   0.80706273    -6.3981963      0             -5.1909649      7.3453468    
     10000   0.78350398    -6.2516318      0             -5.0796404      8.2479449    
     15000   0.72557155    -6.2293526      0             -5.1440185      8.09167      
     20000   0.84494422    -6.2750387      0             -5.011143       8.3639574    
     25000   0.84942279    -6.3560318      0             -5.0854369      7.5471411    
     30000   0.75767571    -6.3399712      0             -5.2066146      7.51357      
     35000   0.83669987    -6.3510197      0             -5.0994562      7.7766184    
     40000   0.80002584    -6.3930011      0             -5.1962958      7.3709925    
     45000   0.81854043    -6.2394644      0             -5.0150644      8.2898772    
     50000   0.83455087    -6.393517       0             -5.145168       7.3521379    
     55000   0.79215191    -6.389018       0             -5.2040907      7.4635363    
     60000   0.76313735    -6.2857748      0             -5.1442486      7.9866884    
     65000   0.84436744    -6.2946619      0             -5.031629       8.0469016    
     70000   0.75455505    -6.3134089      0             -5.1847203      7.7831826    
     75000   0.79622093    -6.3569286      0             -5.1659148      7.59912      
     80000   0.82178796    -6.2856139      0             -5.0563561      8.0525485    
     85000   0.82681716    -6.2965682      0             -5.0597875      7.9193326    
     90000   0.8016078     -6.3314747      0             -5.1324031      7.88768      
     95000   0.7877932     -6.2972072      0             -5.1187998      7.89621      
    100000   0.77070356    -6.3387846      0             -5.1859405      7.5150414    
    105000   0.78906432    -6.3066181      0             -5.1263093      7.8481664    
    110000   0.78667967    -6.3322116      0             -5.1554699      7.6632474    
    115000   0.76512325    -6.2942016      0             -5.1497047      7.8004151    
    120000   0.85133265    -6.3773137      0             -5.103862       7.3422936    
    125000   0.76529993    -6.3640101      0             -5.219249       7.411786     
    130000   0.75671373    -6.4991653      0             -5.3672476      6.6472761    
    135000   0.81772677    -6.3712243      0             -5.1480414      7.5075489    
    140000   0.75052105    -6.3113251      0             -5.1886707      7.8559486    
    145000   0.82076536    -6.3178696      0             -5.0901414      7.7779628    
    150000   0.80521598    -6.3270623      0             -5.1225934      7.8386943    
Loop time of 12.9058 on 20 procs for 150000 steps with 360 atoms

Performance: 2008399.047 tau/day, 11622.680 timesteps/s, 4.184 Matom-step/s
99.7% CPU use with 20 MPI tasks x 1 OpenMP threads

MPI task timing breakdown:
Section |  min time  |  avg time  |  max time  |%varavg| %total
---------------------------------------------------------------
Pair    | 1.0783     | 1.2063     | 1.365      |   8.1 |  9.35
Neigh   | 0.13118    | 0.14138    | 0.15695    |   2.0 |  1.10
Comm    | 9.4818     | 9.7171     | 9.9694     |   4.7 | 75.29
Output  | 0.0058636  | 0.0059394  | 0.0062083  |   0.1 |  0.05
Modify  | 1.0719     | 1.3311     | 1.6135     |  17.0 | 10.31
Other   |            | 0.504      |            |       |  3.91

Nlocal:             18 ave          22 max          14 min
Histogram: 1 0 2 5 0 3 7 1 0 1
Nghost:         746.35 ave         762 max         734 min
Histogram: 3 1 2 4 2 2 2 1 1 2
Neighs:        1041.05 ave        1375 max         822 min
Histogram: 2 2 4 3 1 5 1 1 0 1

Total # of neighbors = 20821
Ave neighs/atom = 57.836111
Neighbor list builds = 3592
Dangerous builds = 0
Total wall time: 0:00:13
