
include ${pot}.lmp
include kalj.lmp
units lj
atom_style atomic

variable dimensions equal 3
variable density equal 1.2
variable fraca equal 0.8

dimension ${dimensions}
dimension 3

#setup box
variable boxlength equal exp(ln(${volume})/${dimensions})
variable boxlength equal exp(ln(300)/${dimensions})
variable boxlength equal exp(ln(300)/3)
variable ntypea equal floor(${fraca}*${natoms})
variable ntypea equal floor(0.8*${natoms})
variable ntypea equal floor(0.8*360)
variable bstart equal ${ntypea}+1
variable bstart equal 288+1
variable ntypeb equal ${natoms}-${ntypea}
variable ntypeb equal 360-${ntypea}
variable ntypeb equal 360-288

lattice fcc ${density}
lattice fcc 1.2
Lattice spacing in x,y,z = 1.4938016 1.4938016 1.4938016
region box01 block 0 ${boxlength} 0 ${boxlength} 0 ${boxlength} units box
region box01 block 0 6.69432950082169 0 ${boxlength} 0 ${boxlength} units box
region box01 block 0 6.69432950082169 0 6.69432950082169 0 ${boxlength} units box
region box01 block 0 6.69432950082169 0 6.69432950082169 0 6.69432950082169 units box
create_box 2 box01 # 2 atomtypes
Created orthogonal box = (0 0 0) to (6.6943295 6.6943295 6.6943295)
  2 by 2 by 5 MPI processor grid
create_atoms 1 box
Created 365 atoms
  using lattice units in orthogonal box = (0 0 0) to (6.6943295 6.6943295 6.6943295)
  create_atoms CPU = 0.014 seconds

set atom ${bstart}* type 2
set atom 289* type 2
Setting atom values ...
  77 settings made for type
group extra id > ${natoms}
group extra id > 360
5 atoms in group extra
delete_atoms group extra
Deleted 5 atoms, new total = 360
group typea type 1
288 atoms in group typea
group typeb type 2
72 atoms in group typeb

include ${pot}_particles.lmp
include kalj_particles.lmp
mass * 1.0 #  set mass 1.0 for all types

pair_style lj/cut 2.5
#pair coeffs type1 type2 eps sigma
pair_coeff 1 1 1.0 1.00 2.5
pair_coeff 1 2 1.5 0.80 2.0
pair_coeff 2 2 0.5 0.88 2.2
pair_modify shift yes

print "Minimizing initial structure"
Minimizing initial structure
restart ${minsteps} ${basename}.final.lmprestart
restart 10000 ${basename}.final.lmprestart
restart 10000 equil/kalj_T2_n360_v300_10000_1.final.lmprestart
dump 1 all atom ${dumptime} ${basename}.lammpstrj
dump 1 all atom 10000 ${basename}.lammpstrj
dump 1 all atom 10000 equil/kalj_T2_n360_v300_10000_1.lammpstrj
thermo ${thermotime}
thermo 1000
timestep ${timestep}
timestep 0.001
neighbor 0.5 bin
neigh_modify every 1 delay 0 check yes
fix 1 all nve/limit 0.1
run ${minsteps}
run 10000
Generated 0 of 1 mixed pair_coeff terms from geometric mixing rule
Neighbor list info ...
  update: every = 1 steps, delay = 0 steps, check = yes
  max neighbors/atom: 2000, page size: 100000
  master list distance cutoff = 3
  ghost atom cutoff = 3
  binsize = 1.5, bins = 5 5 5
  1 neighbor lists, perpetual/occasional/extra = 1 0 0
  (1) pair lj/cut, perpetual
      attributes: half, newton on
      pair build: half/bin/atomonly/newton
      stencil: half/bin/3d
      bin: standard
Per MPI rank memory allocation (min/avg/max) = 4.081 | 4.081 | 4.081 Mbytes
   Step          Temp          E_pair         E_mol          TotEng         Press     
         0   0              31.41578       0              31.41578       200.04157    
      1000   16.748973      6.1797313      0              31.233404      97.760244    
      2000   16.952491      5.8740924      0              31.232193      96.298641    
      3000   16.513472      6.5323232      0              31.233726      100.03238    
      4000   16.558491      6.4653208      0              31.234064      99.344227    
      5000   17.037982      5.7487811      0              31.234762      95.808991    
      6000   16.818125      6.075159       0              31.232272      97.911549    
      7000   16.701361      6.2513254      0              31.233778      98.396451    
      8000   17.175692      5.54015        0              31.232122      95.507084    
      9000   17.197568      5.507776       0              31.232471      95.20318     
     10000   16.644048      6.3361661      0              31.232888      98.405925    
Loop time of 0.873386 on 20 procs for 10000 steps with 360 atoms

Performance: 989253.104 tau/day, 11449.689 timesteps/s, 4.122 Matom-step/s
99.7% CPU use with 20 MPI tasks x 1 OpenMP threads

MPI task timing breakdown:
Section |  min time  |  avg time  |  max time  |%varavg| %total
---------------------------------------------------------------
Pair    | 0.075498   | 0.08509    | 0.091947   |   1.7 |  9.74
Neigh   | 0.021491   | 0.02289    | 0.024057   |   0.5 |  2.62
Comm    | 0.64872    | 0.67       | 0.69741    |   1.6 | 76.71
Output  | 0.0018018  | 0.0018261  | 0.0019484  |   0.1 |  0.21
Modify  | 0.0025896  | 0.0028853  | 0.0031126  |   0.2 |  0.33
Other   |            | 0.09069    |            |       | 10.38

Nlocal:             18 ave          23 max          14 min
Histogram: 1 2 2 2 5 4 2 1 0 1
Nghost:         755.05 ave         764 max         750 min
Histogram: 5 1 4 2 1 1 3 2 0 1
Neighs:        1033.15 ave        1358 max         767 min
Histogram: 1 1 3 3 4 5 2 0 0 1

Total # of neighbors = 20663
Ave neighs/atom = 57.397222
Neighbor list builds = 603
Dangerous builds = 0
Total wall time: 0:00:01
